#######################################
### Exact MIP solver for the HHCRSP ###
#######################################
-- Instance file: new-instances/HHCRSP_100_20_73_1.6_C_RC.txt
-- Max threads: 4
-- Time limit: 999999 seconds
-- Use initial solution: No
Trivial flow violations prevented generating 47048 variables.
Model exported.
Version identifier: 20.1.0.0 | 2020-11-10 | 9bedb6d68
CPXPARAM_Threads                                 4
CPXPARAM_TimeLimit                               999999
Parallel mode: deterministic, using up to 4 threads for concurrent optimization:
 * Starting dual Simplex on 1 thread...
 * Starting Barrier on 3 threads...
Tried aggregator 1 time.
LP Presolve eliminated 5388 rows and 1234 columns.
Reduced LP has 49740 rows, 47605 columns, and 562238 nonzeros.
Presolve time = 0.26 sec. (146.42 ticks)
Symmetry aggregator did 53178 additional substitutions.

Iteration log . . .
Iteration:     1   Dual objective     =             0.000000
Iteration:   483   Dual objective     =           189.000000

Dual crossover.
  Dual:  Fixing 329 variables.
      328 DMoves:  Infeasibility  1.91680078e-13  Objective  1.93335267e+02
        0 DMoves:  Infeasibility  1.56791278e-13  Objective  1.93335267e+02
  Dual:  Pushed 7, exchanged 322.
  Primal:  Fixing 113 variables.
      112 PMoves:  Infeasibility  4.99600361e-16  Objective  1.93335267e+02
        0 PMoves:  Infeasibility  9.90093424e-16  Objective  1.93335267e+02
  Primal:  Pushed 71, exchanged 42.

Dual simplex solved model.


Solution status from MIP model:
-- Processing time: 0.474 sec.
-- Memory used: 122.75 MB
-- Best bound: inf
-- Obj value: 193.335
-- Gap: inf%
-- Total distance: 580.006
-- Total tardiness: 0
-- Largest tardiness: 0
